76 85 49 99 56 73 60 86 62 61 86 75 68 70 44 15 22 45 17 65 61 59 71 48 50 
42 33 63 51 16 62 11 88 86 86 20 67 10 82 41 59 57 99 44 69 90 69 29 60 98 
36 65 11 36 66 37 57 61 89 74 72 37 85 20 91 71 25 78 28 41 18 53 96 48 91 
60 87 95 75 14 92 91 22 49 88 58 52 29 83 86 22 29 89 33 60 47 72 56 26 59 
737
36 11 82 42 43 20 19 62 15 22 28 45 32 62 80 19 29 62 13 87 98 28 35 99 32 
550
10 10 10 10 10 10 10 10 10 10 10 10 10 10 10 10 10 10 10 10 10 10 10 10 10 
125
